c strEdges: 125  randomEdges: 504 
c degrees:  1  2 
c girth: Inf max: -43.604516  
c Hgirth mixed MAXCUT instance
c generated from an undirected graph
c to solve unweighted MaxCut
p cnf 140 1258
51 6 0
-51 -6 0
78 21 0
-78 -21 0
78 137 0
-78 -137 0
89 74 0
-89 -74 0
89 100 0
-89 -100 0
33 31 0
-33 -31 0
95 119 0
-95 -119 0
95 26 0
-95 -26 0
57 108 0
-57 -108 0
50 61 0
-50 -61 0
50 138 0
-50 -138 0
29 120 0
-29 -120 0
29 49 0
-29 -49 0
20 8 0
-20 -8 0
20 126 0
-20 -126 0
103 114 0
-103 -114 0
103 63 0
-103 -63 0
37 49 0
-37 -49 0
37 108 0
-37 -108 0
4 34 0
-4 -34 0
4 99 0
-4 -99 0
13 125 0
-13 -125 0
13 118 0
-13 -118 0
24 52 0
-24 -52 0
24 84 0
-24 -84 0
116 112 0
-116 -112 0
116 139 0
-116 -139 0
130 79 0
-130 -79 0
130 8 0
-130 -8 0
17 9 0
-17 -9 0
17 21 0
-17 -21 0
43 113 0
-43 -113 0
43 19 0
-43 -19 0
35 105 0
-35 -105 0
35 7 0
-35 -7 0
40 100 0
-40 -100 0
40 41 0
-40 -41 0
38 26 0
-38 -26 0
38 6 0
-38 -6 0
39 27 0
-39 -27 0
39 25 0
-39 -25 0
128 19 0
-128 -19 0
128 114 0
-128 -114 0
77 48 0
-77 -48 0
77 121 0
-77 -121 0
111 102 0
-111 -102 0
111 76 0
-111 -76 0
124 68 0
-124 -68 0
45 139 0
-45 -139 0
28 129 0
-28 -129 0
117 87 0
-117 -87 0
117 133 0
-117 -133 0
64 7 0
-64 -7 0
64 12 0
-64 -12 0
46 104 0
-46 -104 0
46 2 0
-46 -2 0
132 109 0
-132 -109 0
132 55 0
-132 -55 0
58 63 0
-58 -63 0
85 42 0
-85 -42 0
85 88 0
-85 -88 0
123 18 0
-123 -18 0
123 65 0
-123 -65 0
36 110 0
-36 -110 0
82 136 0
-82 -136 0
14 80 0
-14 -80 0
14 104 0
-14 -104 0
60 73 0
-60 -73 0
60 27 0
-60 -27 0
3 91 0
-3 -91 0
5 71 0
-5 -71 0
5 113 0
-5 -113 0
22 88 0
-22 -88 0
72 2 0
-72 -2 0
72 68 0
-72 -68 0
10 59 0
-10 -59 0
10 131 0
-10 -131 0
127 133 0
-127 -133 0
92 97 0
-92 -97 0
92 34 0
-92 -34 0
44 41 0
-44 -41 0
44 120 0
-44 -120 0
101 75 0
-101 -75 0
70 99 0
-70 -99 0
70 11 0
-70 -11 0
30 118 0
-30 -118 0
30 59 0
-30 -59 0
15 94 0
-15 -94 0
15 87 0
-15 -87 0
135 121 0
-135 -121 0
135 112 0
-135 -112 0
23 131 0
-23 -131 0
23 136 0
-23 -136 0
67 12 0
-67 -12 0
67 9 0
-67 -9 0
81 54 0
-81 -54 0
81 42 0
-81 -42 0
62 65 0
-62 -65 0
62 110 0
-62 -110 0
32 126 0
-32 -126 0
32 86 0
-32 -86 0
122 55 0
-122 -55 0
122 105 0
-122 -105 0
107 25 0
-107 -25 0
107 74 0
-107 -74 0
47 76 0
-47 -76 0
47 73 0
-47 -73 0
93 1 0
-93 -1 0
93 61 0
-93 -61 0
140 69 0
-140 -69 0
140 109 0
-140 -109 0
53 83 0
-53 -83 0
66 11 0
-66 -11 0
66 75 0
-66 -75 0
56 86 0
-56 -86 0
90 137 0
-90 -137 0
90 54 0
-90 -54 0
98 84 0
-98 -84 0
98 106 0
-98 -106 0
115 138 0
-115 -138 0
115 83 0
-115 -83 0
134 16 0
-134 -16 0
134 52 0
-134 -52 0
96 106 0
-96 -106 0
96 71 0
-96 -71 0
44 109 0
-44 -109 0
128 53 0
-128 -53 0
36 93 0
-36 -93 0
56 113 0
-56 -113 0
82 81 0
-82 -81 0
62 8 0
-62 -8 0
103 125 0
-103 -125 0
67 137 0
-67 -137 0
103 77 0
-103 -77 0
4 101 0
-4 -101 0
57 46 0
-57 -46 0
51 117 0
-51 -117 0
38 44 0
-38 -44 0
13 27 0
-13 -27 0
23 18 0
-23 -18 0
107 87 0
-107 -87 0
44 108 0
-44 -108 0
45 72 0
-45 -72 0
124 42 0
-124 -42 0
33 63 0
-33 -63 0
128 36 0
-128 -36 0
92 136 0
-92 -136 0
21 80 0
-21 -80 0
6 94 0
-6 -94 0
102 136 0
-102 -136 0
22 81 0
-22 -81 0
130 66 0
-130 -66 0
78 1 0
-78 -1 0
13 26 0
-13 -26 0
122 34 0
-122 -34 0
13 65 0
-13 -65 0
13 90 0
-13 -90 0
17 49 0
-17 -49 0
17 79 0
-17 -79 0
9 105 0
-9 -105 0
78 57 0
-78 -57 0
46 115 0
-46 -115 0
20 103 0
-20 -103 0
103 40 0
-103 -40 0
119 34 0
-119 -34 0
30 19 0
-30 -19 0
72 114 0
-72 -114 0
33 113 0
-33 -113 0
15 114 0
-15 -114 0
51 120 0
-51 -120 0
95 18 0
-95 -18 0
72 19 0
-72 -19 0
128 91 0
-128 -91 0
112 113 0
-112 -113 0
133 97 0
-133 -97 0
77 132 0
-77 -132 0
134 12 0
-134 -12 0
78 12 0
-78 -12 0
110 97 0
-110 -97 0
98 34 0
-98 -34 0
82 27 0
-82 -27 0
29 47 0
-29 -47 0
33 71 0
-33 -71 0
75 126 0
-75 -126 0
63 131 0
-63 -131 0
4 24 0
-4 -24 0
44 121 0
-44 -121 0
60 92 0
-60 -92 0
51 16 0
-51 -16 0
56 59 0
-56 -59 0
51 77 0
-51 -77 0
40 122 0
-40 -122 0
18 126 0
-18 -126 0
90 91 0
-90 -91 0
67 83 0
-67 -83 0
33 72 0
-33 -72 0
14 122 0
-14 -122 0
92 135 0
-92 -135 0
8 104 0
-8 -104 0
8 110 0
-8 -110 0
15 16 0
-15 -16 0
125 100 0
-125 -100 0
93 118 0
-93 -118 0
139 126 0
-139 -126 0
90 12 0
-90 -12 0
81 137 0
-81 -137 0
124 123 0
-124 -123 0
101 31 0
-101 -31 0
28 86 0
-28 -86 0
51 34 0
-51 -34 0
29 140 0
-29 -140 0
57 47 0
-57 -47 0
117 82 0
-117 -82 0
34 71 0
-34 -71 0
38 31 0
-38 -31 0
72 92 0
-72 -92 0
101 107 0
-101 -107 0
32 140 0
-32 -140 0
33 137 0
-33 -137 0
108 126 0
-108 -126 0
81 84 0
-81 -84 0
63 25 0
-63 -25 0
95 56 0
-95 -56 0
40 12 0
-40 -12 0
78 76 0
-78 -76 0
24 87 0
-24 -87 0
5 133 0
-5 -133 0
67 66 0
-67 -66 0
21 139 0
-21 -139 0
21 106 0
-21 -106 0
41 75 0
-41 -75 0
130 60 0
-130 -60 0
85 127 0
-85 -127 0
22 118 0
-22 -118 0
105 19 0
-105 -19 0
38 47 0
-38 -47 0
91 88 0
-91 -88 0
85 100 0
-85 -100 0
128 106 0
-128 -106 0
50 47 0
-50 -47 0
30 110 0
-30 -110 0
3 126 0
-3 -126 0
40 25 0
-40 -25 0
111 21 0
-111 -21 0
107 66 0
-107 -66 0
34 9 0
-34 -9 0
122 94 0
-122 -94 0
96 91 0
-96 -91 0
57 110 0
-57 -110 0
129 69 0
-129 -69 0
28 136 0
-28 -136 0
112 54 0
-112 -54 0
67 27 0
-67 -27 0
117 62 0
-117 -62 0
4 25 0
-4 -25 0
35 124 0
-35 -124 0
67 62 0
-67 -62 0
82 94 0
-82 -94 0
17 28 0
-17 -28 0
50 130 0
-50 -130 0
38 101 0
-38 -101 0
127 9 0
-127 -9 0
73 86 0
-73 -86 0
14 96 0
-14 -96 0
124 115 0
-124 -115 0
13 138 0
-13 -138 0
51 108 0
-51 -108 0
116 110 0
-116 -110 0
60 127 0
-60 -127 0
24 114 0
-24 -114 0
15 133 0
-15 -133 0
50 28 0
-50 -28 0
133 41 0
-133 -41 0
30 140 0
-30 -140 0
133 137 0
-133 -137 0
73 97 0
-73 -97 0
50 16 0
-50 -16 0
21 84 0
-21 -84 0
44 62 0
-44 -62 0
18 97 0
-18 -97 0
59 54 0
-59 -54 0
80 131 0
-80 -131 0
19 25 0
-19 -25 0
55 16 0
-55 -16 0
20 26 0
-20 -26 0
37 64 0
-37 -64 0
135 69 0
-135 -69 0
110 2 0
-110 -2 0
128 46 0
-128 -46 0
28 42 0
-28 -42 0
64 32 0
-64 -32 0
128 55 0
-128 -55 0
35 92 0
-35 -92 0
38 100 0
-38 -100 0
62 76 0
-62 -76 0
68 110 0
-68 -110 0
101 93 0
-101 -93 0
69 86 0
-69 -86 0
4 113 0
-4 -113 0
72 87 0
-72 -87 0
96 113 0
-96 -113 0
95 135 0
-95 -135 0
39 66 0
-39 -66 0
119 76 0
-119 -76 0
117 76 0
-117 -76 0
40 6 0
-40 -6 0
50 80 0
-50 -80 0
42 91 0
-42 -91 0
79 55 0
-79 -55 0
43 118 0
-43 -118 0
38 113 0
-38 -113 0
5 9 0
-5 -9 0
35 42 0
-35 -42 0
27 137 0
-27 -137 0
39 131 0
-39 -131 0
42 11 0
-42 -11 0
27 87 0
-27 -87 0
43 91 0
-43 -91 0
19 11 0
-19 -11 0
36 9 0
-36 -9 0
61 120 0
-61 -120 0
23 21 0
-23 -21 0
87 94 0
-87 -94 0
135 120 0
-135 -120 0
45 58 0
-45 -58 0
119 71 0
-119 -71 0
78 47 0
-78 -47 0
29 127 0
-29 -127 0
17 52 0
-17 -52 0
85 54 0
-85 -54 0
43 26 0
-43 -26 0
90 68 0
-90 -68 0
132 83 0
-132 -83 0
139 86 0
-139 -86 0
95 137 0
-95 -137 0
14 15 0
-14 -15 0
14 8 0
-14 -8 0
132 68 0
-132 -68 0
123 69 0
-123 -69 0
95 86 0
-95 -86 0
122 16 0
-122 -16 0
60 84 0
-60 -84 0
10 12 0
-10 -12 0
4 124 0
-4 -124 0
96 110 0
-96 -110 0
51 118 0
-51 -118 0
3 135 0
-3 -135 0
33 93 0
-33 -93 0
46 71 0
-46 -71 0
53 75 0
-53 -75 0
100 54 0
-100 -54 0
33 18 0
-33 -18 0
140 63 0
-140 -63 0
70 27 0
-70 -27 0
78 140 0
-78 -140 0
44 66 0
-44 -66 0
85 84 0
-85 -84 0
63 59 0
-63 -59 0
39 58 0
-39 -58 0
25 76 0
-25 -76 0
125 139 0
-125 -139 0
58 140 0
-58 -140 0
45 69 0
-45 -69 0
58 138 0
-58 -138 0
62 131 0
-62 -131 0
38 28 0
-38 -28 0
130 40 0
-130 -40 0
32 55 0
-32 -55 0
116 18 0
-116 -18 0
38 96 0
-38 -96 0
44 86 0
-44 -86 0
46 69 0
-46 -69 0
32 107 0
-32 -107 0
61 118 0
-61 -118 0
35 12 0
-35 -12 0
101 69 0
-101 -69 0
53 99 0
-53 -99 0
26 63 0
-26 -63 0
23 137 0
-23 -137 0
19 75 0
-19 -75 0
4 46 0
-4 -46 0
101 100 0
-101 -100 0
10 81 0
-10 -81 0
61 88 0
-61 -88 0
45 7 0
-45 -7 0
135 59 0
-135 -59 0
15 96 0
-15 -96 0
70 84 0
-70 -84 0
115 100 0
-115 -100 0
21 113 0
-21 -113 0
38 106 0
-38 -106 0
17 77 0
-17 -77 0
51 52 0
-51 -52 0
33 97 0
-33 -97 0
101 55 0
-101 -55 0
125 97 0
-125 -97 0
45 16 0
-45 -16 0
62 11 0
-62 -11 0
116 79 0
-116 -79 0
24 65 0
-24 -65 0
39 49 0
-39 -49 0
38 18 0
-38 -18 0
107 76 0
-107 -76 0
98 73 0
-98 -73 0
33 70 0
-33 -70 0
26 99 0
-26 -99 0
95 30 0
-95 -30 0
79 18 0
-79 -18 0
43 21 0
-43 -21 0
111 73 0
-111 -73 0
124 119 0
-124 -119 0
24 111 0
-24 -111 0
101 41 0
-101 -41 0
116 49 0
-116 -49 0
35 112 0
-35 -112 0
24 71 0
-24 -71 0
103 3 0
-103 -3 0
122 61 0
-122 -61 0
125 88 0
-125 -88 0
117 137 0
-117 -137 0
19 104 0
-19 -104 0
3 41 0
-3 -41 0
89 133 0
-89 -133 0
60 93 0
-60 -93 0
62 6 0
-62 -6 0
85 136 0
-85 -136 0
3 102 0
-3 -102 0
90 8 0
-90 -8 0
101 53 0
-101 -53 0
1 138 0
-1 -138 0
20 111 0
-20 -111 0
13 85 0
-13 -85 0
132 123 0
-132 -123 0
116 63 0
-116 -63 0
83 137 0
-83 -137 0
105 133 0
-105 -133 0
57 69 0
-57 -69 0
108 1 0
-108 -1 0
13 61 0
-13 -61 0
44 118 0
-44 -118 0
24 122 0
-24 -122 0
77 86 0
-77 -86 0
4 81 0
-4 -81 0
95 125 0
-95 -125 0
95 104 0
-95 -104 0
63 73 0
-63 -73 0
46 85 0
-46 -85 0
127 134 0
-127 -134 0
104 110 0
-104 -110 0
52 110 0
-52 -110 0
118 55 0
-118 -55 0
51 130 0
-51 -130 0
38 63 0
-38 -63 0
125 109 0
-125 -109 0
38 109 0
-38 -109 0
40 61 0
-40 -61 0
20 36 0
-20 -36 0
14 61 0
-14 -61 0
31 121 0
-31 -121 0
56 75 0
-56 -75 0
135 80 0
-135 -80 0
91 133 0
-91 -133 0
95 129 0
-95 -129 0
53 61 0
-53 -61 0
109 106 0
-109 -106 0
122 52 0
-122 -52 0
132 96 0
-132 -96 0
44 137 0
-44 -137 0
73 59 0
-73 -59 0
5 32 0
-5 -32 0
53 105 0
-53 -105 0
18 73 0
-18 -73 0
130 115 0
-130 -115 0
111 126 0
-111 -126 0
107 49 0
-107 -49 0
98 112 0
-98 -112 0
97 69 0
-97 -69 0
21 54 0
-21 -54 0
15 138 0
-15 -138 0
92 86 0
-92 -86 0
32 48 0
-32 -48 0
39 128 0
-39 -128 0
47 96 0
-47 -96 0
87 121 0
-87 -121 0
96 138 0
-96 -138 0
4 126 0
-4 -126 0
77 83 0
-77 -83 0
64 19 0
-64 -19 0
50 87 0
-50 -87 0
50 18 0
-50 -18 0
78 135 0
-78 -135 0
73 94 0
-73 -94 0
81 100 0
-81 -100 0
46 129 0
-46 -129 0
79 121 0
-79 -121 0
82 67 0
-82 -67 0
111 87 0
-111 -87 0
68 73 0
-68 -73 0
29 27 0
-29 -27 0
24 22 0
-24 -22 0
23 106 0
-23 -106 0
24 61 0
-24 -61 0
116 131 0
-116 -131 0
138 106 0
-138 -106 0
17 25 0
-17 -25 0
122 41 0
-122 -41 0
124 133 0
-124 -133 0
125 7 0
-125 -7 0
92 12 0
-92 -12 0
3 133 0
-3 -133 0
23 97 0
-23 -97 0
120 65 0
-120 -65 0
33 37 0
-33 -37 0
45 112 0
-45 -112 0
14 140 0
-14 -140 0
57 121 0
-57 -121 0
46 94 0
-46 -94 0
29 48 0
-29 -48 0
103 130 0
-103 -130 0
136 59 0
-136 -59 0
3 49 0
-3 -49 0
73 137 0
-73 -137 0
45 5 0
-45 -5 0
39 122 0
-39 -122 0
43 93 0
-43 -93 0
26 121 0
-26 -121 0
98 100 0
-98 -100 0
24 75 0
-24 -75 0
103 15 0
-103 -15 0
62 104 0
-62 -104 0
103 92 0
-103 -92 0
72 62 0
-72 -62 0
119 110 0
-119 -110 0
10 115 0
-10 -115 0
28 137 0
-28 -137 0
30 96 0
-30 -96 0
95 45 0
-95 -45 0
92 49 0
-92 -49 0
112 9 0
-112 -9 0
31 68 0
-31 -68 0
17 55 0
-17 -55 0
81 25 0
-81 -25 0
105 88 0
-105 -88 0
58 75 0
-58 -75 0
78 39 0
-78 -39 0
13 39 0
-13 -39 0
92 133 0
-92 -133 0
35 118 0
-35 -118 0
101 6 0
-101 -6 0
35 84 0
-35 -84 0
95 64 0
-95 -64 0
79 137 0
-79 -137 0
77 98 0
-77 -98 0
10 52 0
-10 -52 0
15 55 0
-15 -55 0
22 86 0
-22 -86 0
17 94 0
-17 -94 0
40 115 0
-40 -115 0
24 6 0
-24 -6 0
54 11 0
-54 -11 0
12 137 0
-12 -137 0
100 131 0
-100 -131 0
53 76 0
-53 -76 0
7 41 0
-7 -41 0
46 70 0
-46 -70 0
85 66 0
-85 -66 0
55 84 0
-55 -84 0
101 120 0
-101 -120 0
50 125 0
-50 -125 0
120 34 0
-120 -34 0
3 139 0
-3 -139 0
140 74 0
-140 -74 0
101 54 0
-101 -54 0
120 109 0
-120 -109 0
111 36 0
-111 -36 0
37 124 0
-37 -124 0
29 100 0
-29 -100 0
81 113 0
-81 -113 0
98 114 0
-98 -114 0
103 135 0
-103 -135 0
66 73 0
-66 -73 0
43 27 0
-43 -27 0
125 94 0
-125 -94 0
63 42 0
-63 -42 0
57 134 0
-57 -134 0
103 70 0
-103 -70 0
92 15 0
-92 -15 0
37 63 0
-37 -63 0
67 31 0
-67 -31 0
19 48 0
-19 -48 0
79 69 0
-79 -69 0
32 41 0
-32 -41 0
82 96 0
-82 -96 0
82 109 0
-82 -109 0
38 102 0
-38 -102 0
22 72 0
-22 -72 0
23 93 0
-23 -93 0
58 34 0
-58 -34 0
70 79 0
-70 -79 0
20 23 0
-20 -23 0
14 49 0
-14 -49 0
51 72 0
-51 -72 0
52 139 0
-52 -139 0
119 86 0
-119 -86 0
91 12 0
-91 -12 0
77 93 0
-77 -93 0
116 1 0
-116 -1 0
50 99 0
-50 -99 0
4 8 0
-4 -8 0
15 109 0
-15 -109 0
33 96 0
-33 -96 0
45 82 0
-45 -82 0
17 19 0
-17 -19 0
15 84 0
-15 -84 0
78 71 0
-78 -71 0
139 75 0
-139 -75 0
107 73 0
-107 -73 0
53 79 0
-53 -79 0
54 1 0
-54 -1 0
132 118 0
-132 -118 0
51 45 0
-51 -45 0
36 56 0
-36 -56 0
77 68 0
-77 -68 0
40 93 0
-40 -93 0
74 102 0
-74 -102 0
117 5 0
-117 -5 0
89 1 0
-89 -1 0
101 62 0
-101 -62 0
4 76 0
-4 -76 0
